120 150

55
58
52
52
55
54
59
51
55
46
58
40
46
55
55
44
43
41
49
60
55
54
50
60
41
56
52
41
49
55
50
40
58
46
42
48
42
50
52
46
60
54
54
46
59
45
54
44
56
57
42
51
46
60
54
42
53
51
44
53
46
55
52
40
52
53
43
56
45
43
52
45
51
54
51
42
56
60
50
54
55
58
43
47
54
50
45
49
46
59
54
54
58
41
51
50
56
58
44
49
52
52
40
50
43
51
46
49
52
40
42
53
45
55
42
42
59
41
58
53